3
1
0
337
5
3
12
0
0
3
0
41
3
1
2813
0
0
0
31
58
15716
169
38
0
32
3
3919
34
11
1
2
1
0
14
0
2
4
108
1
5956
0
0
1971
2
81
706
2
52
57
2
2
16
19
270
0
7
0
12683
1
81
2
809
0
17
15
5
380
6
0
0
1
11
65
4
1
185
26
35
0
0
41
118
1
65
0
0
197
0
0
26
0
0
16
52
1
172
0
37
0
10
